(set-option :produce-proofs true)
(declare-const x0c0 Int)
(assert (>= x0c0 0))
(assert (<= x0c0 1))
(declare-const x0c1 Int)
(assert (>= x0c1 0))
(assert (<= x0c1 1))
(declare-const x0c2 Int)
(assert (>= x0c2 0))
(assert (<= x0c2 1))
(assert (= 1 (+ x0c0 x0c1 x0c2)))
(declare-const x1c0 Int)
(assert (>= x1c0 0))
(assert (<= x1c0 1))
(declare-const x1c1 Int)
(assert (>= x1c1 0))
(assert (<= x1c1 1))
(declare-const x1c2 Int)
(assert (>= x1c2 0))
(assert (<= x1c2 1))
(assert (= 1 (+ x1c0 x1c1 x1c2)))
(declare-const x2c0 Int)
(assert (>= x2c0 0))
(assert (<= x2c0 1))
(declare-const x2c1 Int)
(assert (>= x2c1 0))
(assert (<= x2c1 1))
(declare-const x2c2 Int)
(assert (>= x2c2 0))
(assert (<= x2c2 1))
(assert (= 1 (+ x2c0 x2c1 x2c2)))
(declare-const x3c0 Int)
(assert (>= x3c0 0))
(assert (<= x3c0 1))
(declare-const x3c1 Int)
(assert (>= x3c1 0))
(assert (<= x3c1 1))
(declare-const x3c2 Int)
(assert (>= x3c2 0))
(assert (<= x3c2 1))
(assert (= 1 (+ x3c0 x3c1 x3c2)))
(declare-const x4c0 Int)
(assert (>= x4c0 0))
(assert (<= x4c0 1))
(declare-const x4c1 Int)
(assert (>= x4c1 0))
(assert (<= x4c1 1))
(declare-const x4c2 Int)
(assert (>= x4c2 0))
(assert (<= x4c2 1))
(assert (= 1 (+ x4c0 x4c1 x4c2)))
(declare-const x5c0 Int)
(assert (>= x5c0 0))
(assert (<= x5c0 1))
(declare-const x5c1 Int)
(assert (>= x5c1 0))
(assert (<= x5c1 1))
(declare-const x5c2 Int)
(assert (>= x5c2 0))
(assert (<= x5c2 1))
(assert (= 1 (+ x5c0 x5c1 x5c2)))
(declare-const x6c0 Int)
(assert (>= x6c0 0))
(assert (<= x6c0 1))
(declare-const x6c1 Int)
(assert (>= x6c1 0))
(assert (<= x6c1 1))
(declare-const x6c2 Int)
(assert (>= x6c2 0))
(assert (<= x6c2 1))
(assert (= 1 (+ x6c0 x6c1 x6c2)))
(declare-const x7c0 Int)
(assert (>= x7c0 0))
(assert (<= x7c0 1))
(declare-const x7c1 Int)
(assert (>= x7c1 0))
(assert (<= x7c1 1))
(declare-const x7c2 Int)
(assert (>= x7c2 0))
(assert (<= x7c2 1))
(assert (= 1 (+ x7c0 x7c1 x7c2)))
(declare-const x8c0 Int)
(assert (>= x8c0 0))
(assert (<= x8c0 1))
(declare-const x8c1 Int)
(assert (>= x8c1 0))
(assert (<= x8c1 1))
(declare-const x8c2 Int)
(assert (>= x8c2 0))
(assert (<= x8c2 1))
(assert (= 1 (+ x8c0 x8c1 x8c2)))
(declare-const x9c0 Int)
(assert (>= x9c0 0))
(assert (<= x9c0 1))
(declare-const x9c1 Int)
(assert (>= x9c1 0))
(assert (<= x9c1 1))
(declare-const x9c2 Int)
(assert (>= x9c2 0))
(assert (<= x9c2 1))
(assert (= 1 (+ x9c0 x9c1 x9c2)))
(declare-const x10c0 Int)
(assert (>= x10c0 0))
(assert (<= x10c0 1))
(declare-const x10c1 Int)
(assert (>= x10c1 0))
(assert (<= x10c1 1))
(declare-const x10c2 Int)
(assert (>= x10c2 0))
(assert (<= x10c2 1))
(assert (= 1 (+ x10c0 x10c1 x10c2)))
(declare-const x11c0 Int)
(assert (>= x11c0 0))
(assert (<= x11c0 1))
(declare-const x11c1 Int)
(assert (>= x11c1 0))
(assert (<= x11c1 1))
(declare-const x11c2 Int)
(assert (>= x11c2 0))
(assert (<= x11c2 1))
(assert (= 1 (+ x11c0 x11c1 x11c2)))
(declare-const x12c0 Int)
(assert (>= x12c0 0))
(assert (<= x12c0 1))
(declare-const x12c1 Int)
(assert (>= x12c1 0))
(assert (<= x12c1 1))
(declare-const x12c2 Int)
(assert (>= x12c2 0))
(assert (<= x12c2 1))
(assert (= 1 (+ x12c0 x12c1 x12c2)))
(declare-const x13c0 Int)
(assert (>= x13c0 0))
(assert (<= x13c0 1))
(declare-const x13c1 Int)
(assert (>= x13c1 0))
(assert (<= x13c1 1))
(declare-const x13c2 Int)
(assert (>= x13c2 0))
(assert (<= x13c2 1))
(assert (= 1 (+ x13c0 x13c1 x13c2)))
(declare-const x14c0 Int)
(assert (>= x14c0 0))
(assert (<= x14c0 1))
(declare-const x14c1 Int)
(assert (>= x14c1 0))
(assert (<= x14c1 1))
(declare-const x14c2 Int)
(assert (>= x14c2 0))
(assert (<= x14c2 1))
(assert (= 1 (+ x14c0 x14c1 x14c2)))
(declare-const x15c0 Int)
(assert (>= x15c0 0))
(assert (<= x15c0 1))
(declare-const x15c1 Int)
(assert (>= x15c1 0))
(assert (<= x15c1 1))
(declare-const x15c2 Int)
(assert (>= x15c2 0))
(assert (<= x15c2 1))
(assert (= 1 (+ x15c0 x15c1 x15c2)))
(declare-const x16c0 Int)
(assert (>= x16c0 0))
(assert (<= x16c0 1))
(declare-const x16c1 Int)
(assert (>= x16c1 0))
(assert (<= x16c1 1))
(declare-const x16c2 Int)
(assert (>= x16c2 0))
(assert (<= x16c2 1))
(assert (= 1 (+ x16c0 x16c1 x16c2)))
(declare-const x17c0 Int)
(assert (>= x17c0 0))
(assert (<= x17c0 1))
(declare-const x17c1 Int)
(assert (>= x17c1 0))
(assert (<= x17c1 1))
(declare-const x17c2 Int)
(assert (>= x17c2 0))
(assert (<= x17c2 1))
(assert (= 1 (+ x17c0 x17c1 x17c2)))
(declare-const x18c0 Int)
(assert (>= x18c0 0))
(assert (<= x18c0 1))
(declare-const x18c1 Int)
(assert (>= x18c1 0))
(assert (<= x18c1 1))
(declare-const x18c2 Int)
(assert (>= x18c2 0))
(assert (<= x18c2 1))
(assert (= 1 (+ x18c0 x18c1 x18c2)))
(declare-const x19c0 Int)
(assert (>= x19c0 0))
(assert (<= x19c0 1))
(declare-const x19c1 Int)
(assert (>= x19c1 0))
(assert (<= x19c1 1))
(declare-const x19c2 Int)
(assert (>= x19c2 0))
(assert (<= x19c2 1))
(assert (= 1 (+ x19c0 x19c1 x19c2)))
(declare-const x20c0 Int)
(assert (>= x20c0 0))
(assert (<= x20c0 1))
(declare-const x20c1 Int)
(assert (>= x20c1 0))
(assert (<= x20c1 1))
(declare-const x20c2 Int)
(assert (>= x20c2 0))
(assert (<= x20c2 1))
(assert (= 1 (+ x20c0 x20c1 x20c2)))
(declare-const x21c0 Int)
(assert (>= x21c0 0))
(assert (<= x21c0 1))
(declare-const x21c1 Int)
(assert (>= x21c1 0))
(assert (<= x21c1 1))
(declare-const x21c2 Int)
(assert (>= x21c2 0))
(assert (<= x21c2 1))
(assert (= 1 (+ x21c0 x21c1 x21c2)))
(declare-const x22c0 Int)
(assert (>= x22c0 0))
(assert (<= x22c0 1))
(declare-const x22c1 Int)
(assert (>= x22c1 0))
(assert (<= x22c1 1))
(declare-const x22c2 Int)
(assert (>= x22c2 0))
(assert (<= x22c2 1))
(assert (= 1 (+ x22c0 x22c1 x22c2)))
(declare-const x23c0 Int)
(assert (>= x23c0 0))
(assert (<= x23c0 1))
(declare-const x23c1 Int)
(assert (>= x23c1 0))
(assert (<= x23c1 1))
(declare-const x23c2 Int)
(assert (>= x23c2 0))
(assert (<= x23c2 1))
(assert (= 1 (+ x23c0 x23c1 x23c2)))
(declare-const x24c0 Int)
(assert (>= x24c0 0))
(assert (<= x24c0 1))
(declare-const x24c1 Int)
(assert (>= x24c1 0))
(assert (<= x24c1 1))
(declare-const x24c2 Int)
(assert (>= x24c2 0))
(assert (<= x24c2 1))
(assert (= 1 (+ x24c0 x24c1 x24c2)))
(declare-const x25c0 Int)
(assert (>= x25c0 0))
(assert (<= x25c0 1))
(declare-const x25c1 Int)
(assert (>= x25c1 0))
(assert (<= x25c1 1))
(declare-const x25c2 Int)
(assert (>= x25c2 0))
(assert (<= x25c2 1))
(assert (= 1 (+ x25c0 x25c1 x25c2)))
(declare-const x26c0 Int)
(assert (>= x26c0 0))
(assert (<= x26c0 1))
(declare-const x26c1 Int)
(assert (>= x26c1 0))
(assert (<= x26c1 1))
(declare-const x26c2 Int)
(assert (>= x26c2 0))
(assert (<= x26c2 1))
(assert (= 1 (+ x26c0 x26c1 x26c2)))
(declare-const x27c0 Int)
(assert (>= x27c0 0))
(assert (<= x27c0 1))
(declare-const x27c1 Int)
(assert (>= x27c1 0))
(assert (<= x27c1 1))
(declare-const x27c2 Int)
(assert (>= x27c2 0))
(assert (<= x27c2 1))
(assert (= 1 (+ x27c0 x27c1 x27c2)))
(assert (>= 2 (+ x2c0 x1c0 x0c0)))
(assert (>= 2 (+ x2c1 x1c1 x0c1)))
(assert (>= 2 (+ x2c2 x1c2 x0c2)))
(assert (>= 2 (+ x3c0 x2c0 x1c0)))
(assert (>= 2 (+ x3c1 x2c1 x1c1)))
(assert (>= 2 (+ x3c2 x2c2 x1c2)))
(assert (>= 2 (+ x4c0 x3c0 x2c0)))
(assert (>= 2 (+ x4c0 x2c0 x0c0)))
(assert (>= 2 (+ x4c1 x3c1 x2c1)))
(assert (>= 2 (+ x4c1 x2c1 x0c1)))
(assert (>= 2 (+ x4c2 x3c2 x2c2)))
(assert (>= 2 (+ x4c2 x2c2 x0c2)))
(assert (>= 2 (+ x5c0 x4c0 x3c0)))
(assert (>= 2 (+ x5c0 x3c0 x1c0)))
(assert (>= 2 (+ x5c1 x4c1 x3c1)))
(assert (>= 2 (+ x5c1 x3c1 x1c1)))
(assert (>= 2 (+ x5c2 x4c2 x3c2)))
(assert (>= 2 (+ x5c2 x3c2 x1c2)))
(assert (>= 2 (+ x6c0 x5c0 x4c0)))
(assert (>= 2 (+ x6c0 x4c0 x2c0)))
(assert (>= 2 (+ x6c0 x3c0 x0c0)))
(assert (>= 2 (+ x6c1 x5c1 x4c1)))
(assert (>= 2 (+ x6c1 x4c1 x2c1)))
(assert (>= 2 (+ x6c1 x3c1 x0c1)))
(assert (>= 2 (+ x6c2 x5c2 x4c2)))
(assert (>= 2 (+ x6c2 x4c2 x2c2)))
(assert (>= 2 (+ x6c2 x3c2 x0c2)))
(assert (>= 2 (+ x7c0 x6c0 x5c0)))
(assert (>= 2 (+ x7c0 x5c0 x3c0)))
(assert (>= 2 (+ x7c0 x4c0 x1c0)))
(assert (>= 2 (+ x7c1 x6c1 x5c1)))
(assert (>= 2 (+ x7c1 x5c1 x3c1)))
(assert (>= 2 (+ x7c1 x4c1 x1c1)))
(assert (>= 2 (+ x7c2 x6c2 x5c2)))
(assert (>= 2 (+ x7c2 x5c2 x3c2)))
(assert (>= 2 (+ x7c2 x4c2 x1c2)))
(assert (>= 2 (+ x8c0 x7c0 x6c0)))
(assert (>= 2 (+ x8c0 x6c0 x4c0)))
(assert (>= 2 (+ x8c0 x5c0 x2c0)))
(assert (>= 2 (+ x8c0 x4c0 x0c0)))
(assert (>= 2 (+ x8c1 x7c1 x6c1)))
(assert (>= 2 (+ x8c1 x6c1 x4c1)))
(assert (>= 2 (+ x8c1 x5c1 x2c1)))
(assert (>= 2 (+ x8c1 x4c1 x0c1)))
(assert (>= 2 (+ x8c2 x7c2 x6c2)))
(assert (>= 2 (+ x8c2 x6c2 x4c2)))
(assert (>= 2 (+ x8c2 x5c2 x2c2)))
(assert (>= 2 (+ x8c2 x4c2 x0c2)))
(assert (>= 2 (+ x9c0 x8c0 x7c0)))
(assert (>= 2 (+ x9c0 x7c0 x5c0)))
(assert (>= 2 (+ x9c0 x6c0 x3c0)))
(assert (>= 2 (+ x9c0 x5c0 x1c0)))
(assert (>= 2 (+ x9c1 x8c1 x7c1)))
(assert (>= 2 (+ x9c1 x7c1 x5c1)))
(assert (>= 2 (+ x9c1 x6c1 x3c1)))
(assert (>= 2 (+ x9c1 x5c1 x1c1)))
(assert (>= 2 (+ x9c2 x8c2 x7c2)))
(assert (>= 2 (+ x9c2 x7c2 x5c2)))
(assert (>= 2 (+ x9c2 x6c2 x3c2)))
(assert (>= 2 (+ x9c2 x5c2 x1c2)))
(assert (>= 2 (+ x10c0 x9c0 x8c0)))
(assert (>= 2 (+ x10c0 x8c0 x6c0)))
(assert (>= 2 (+ x10c0 x7c0 x4c0)))
(assert (>= 2 (+ x10c0 x6c0 x2c0)))
(assert (>= 2 (+ x10c0 x5c0 x0c0)))
(assert (>= 2 (+ x10c1 x9c1 x8c1)))
(assert (>= 2 (+ x10c1 x8c1 x6c1)))
(assert (>= 2 (+ x10c1 x7c1 x4c1)))
(assert (>= 2 (+ x10c1 x6c1 x2c1)))
(assert (>= 2 (+ x10c1 x5c1 x0c1)))
(assert (>= 2 (+ x10c2 x9c2 x8c2)))
(assert (>= 2 (+ x10c2 x8c2 x6c2)))
(assert (>= 2 (+ x10c2 x7c2 x4c2)))
(assert (>= 2 (+ x10c2 x6c2 x2c2)))
(assert (>= 2 (+ x10c2 x5c2 x0c2)))
(assert (>= 2 (+ x11c0 x10c0 x9c0)))
(assert (>= 2 (+ x11c0 x9c0 x7c0)))
(assert (>= 2 (+ x11c0 x8c0 x5c0)))
(assert (>= 2 (+ x11c0 x7c0 x3c0)))
(assert (>= 2 (+ x11c0 x6c0 x1c0)))
(assert (>= 2 (+ x11c1 x10c1 x9c1)))
(assert (>= 2 (+ x11c1 x9c1 x7c1)))
(assert (>= 2 (+ x11c1 x8c1 x5c1)))
(assert (>= 2 (+ x11c1 x7c1 x3c1)))
(assert (>= 2 (+ x11c1 x6c1 x1c1)))
(assert (>= 2 (+ x11c2 x10c2 x9c2)))
(assert (>= 2 (+ x11c2 x9c2 x7c2)))
(assert (>= 2 (+ x11c2 x8c2 x5c2)))
(assert (>= 2 (+ x11c2 x7c2 x3c2)))
(assert (>= 2 (+ x11c2 x6c2 x1c2)))
(assert (>= 2 (+ x12c0 x11c0 x10c0)))
(assert (>= 2 (+ x12c0 x10c0 x8c0)))
(assert (>= 2 (+ x12c0 x9c0 x6c0)))
(assert (>= 2 (+ x12c0 x8c0 x4c0)))
(assert (>= 2 (+ x12c0 x7c0 x2c0)))
(assert (>= 2 (+ x12c0 x6c0 x0c0)))
(assert (>= 2 (+ x12c1 x11c1 x10c1)))
(assert (>= 2 (+ x12c1 x10c1 x8c1)))
(assert (>= 2 (+ x12c1 x9c1 x6c1)))
(assert (>= 2 (+ x12c1 x8c1 x4c1)))
(assert (>= 2 (+ x12c1 x7c1 x2c1)))
(assert (>= 2 (+ x12c1 x6c1 x0c1)))
(assert (>= 2 (+ x12c2 x11c2 x10c2)))
(assert (>= 2 (+ x12c2 x10c2 x8c2)))
(assert (>= 2 (+ x12c2 x9c2 x6c2)))
(assert (>= 2 (+ x12c2 x8c2 x4c2)))
(assert (>= 2 (+ x12c2 x7c2 x2c2)))
(assert (>= 2 (+ x12c2 x6c2 x0c2)))
(assert (>= 2 (+ x13c0 x12c0 x11c0)))
(assert (>= 2 (+ x13c0 x11c0 x9c0)))
(assert (>= 2 (+ x13c0 x10c0 x7c0)))
(assert (>= 2 (+ x13c0 x9c0 x5c0)))
(assert (>= 2 (+ x13c0 x8c0 x3c0)))
(assert (>= 2 (+ x13c0 x7c0 x1c0)))
(assert (>= 2 (+ x13c1 x12c1 x11c1)))
(assert (>= 2 (+ x13c1 x11c1 x9c1)))
(assert (>= 2 (+ x13c1 x10c1 x7c1)))
(assert (>= 2 (+ x13c1 x9c1 x5c1)))
(assert (>= 2 (+ x13c1 x8c1 x3c1)))
(assert (>= 2 (+ x13c1 x7c1 x1c1)))
(assert (>= 2 (+ x13c2 x12c2 x11c2)))
(assert (>= 2 (+ x13c2 x11c2 x9c2)))
(assert (>= 2 (+ x13c2 x10c2 x7c2)))
(assert (>= 2 (+ x13c2 x9c2 x5c2)))
(assert (>= 2 (+ x13c2 x8c2 x3c2)))
(assert (>= 2 (+ x13c2 x7c2 x1c2)))
(assert (>= 2 (+ x14c0 x13c0 x12c0)))
(assert (>= 2 (+ x14c0 x12c0 x10c0)))
(assert (>= 2 (+ x14c0 x11c0 x8c0)))
(assert (>= 2 (+ x14c0 x10c0 x6c0)))
(assert (>= 2 (+ x14c0 x9c0 x4c0)))
(assert (>= 2 (+ x14c0 x8c0 x2c0)))
(assert (>= 2 (+ x14c0 x7c0 x0c0)))
(assert (>= 2 (+ x14c1 x13c1 x12c1)))
(assert (>= 2 (+ x14c1 x12c1 x10c1)))
(assert (>= 2 (+ x14c1 x11c1 x8c1)))
(assert (>= 2 (+ x14c1 x10c1 x6c1)))
(assert (>= 2 (+ x14c1 x9c1 x4c1)))
(assert (>= 2 (+ x14c1 x8c1 x2c1)))
(assert (>= 2 (+ x14c1 x7c1 x0c1)))
(assert (>= 2 (+ x14c2 x13c2 x12c2)))
(assert (>= 2 (+ x14c2 x12c2 x10c2)))
(assert (>= 2 (+ x14c2 x11c2 x8c2)))
(assert (>= 2 (+ x14c2 x10c2 x6c2)))
(assert (>= 2 (+ x14c2 x9c2 x4c2)))
(assert (>= 2 (+ x14c2 x8c2 x2c2)))
(assert (>= 2 (+ x14c2 x7c2 x0c2)))
(assert (>= 2 (+ x15c0 x14c0 x13c0)))
(assert (>= 2 (+ x15c0 x13c0 x11c0)))
(assert (>= 2 (+ x15c0 x12c0 x9c0)))
(assert (>= 2 (+ x15c0 x11c0 x7c0)))
(assert (>= 2 (+ x15c0 x10c0 x5c0)))
(assert (>= 2 (+ x15c0 x9c0 x3c0)))
(assert (>= 2 (+ x15c0 x8c0 x1c0)))
(assert (>= 2 (+ x15c1 x14c1 x13c1)))
(assert (>= 2 (+ x15c1 x13c1 x11c1)))
(assert (>= 2 (+ x15c1 x12c1 x9c1)))
(assert (>= 2 (+ x15c1 x11c1 x7c1)))
(assert (>= 2 (+ x15c1 x10c1 x5c1)))
(assert (>= 2 (+ x15c1 x9c1 x3c1)))
(assert (>= 2 (+ x15c1 x8c1 x1c1)))
(assert (>= 2 (+ x15c2 x14c2 x13c2)))
(assert (>= 2 (+ x15c2 x13c2 x11c2)))
(assert (>= 2 (+ x15c2 x12c2 x9c2)))
(assert (>= 2 (+ x15c2 x11c2 x7c2)))
(assert (>= 2 (+ x15c2 x10c2 x5c2)))
(assert (>= 2 (+ x15c2 x9c2 x3c2)))
(assert (>= 2 (+ x15c2 x8c2 x1c2)))
(assert (>= 2 (+ x16c0 x15c0 x14c0)))
(assert (>= 2 (+ x16c0 x14c0 x12c0)))
(assert (>= 2 (+ x16c0 x13c0 x10c0)))
(assert (>= 2 (+ x16c0 x12c0 x8c0)))
(assert (>= 2 (+ x16c0 x11c0 x6c0)))
(assert (>= 2 (+ x16c0 x10c0 x4c0)))
(assert (>= 2 (+ x16c0 x9c0 x2c0)))
(assert (>= 2 (+ x16c0 x8c0 x0c0)))
(assert (>= 2 (+ x16c1 x15c1 x14c1)))
(assert (>= 2 (+ x16c1 x14c1 x12c1)))
(assert (>= 2 (+ x16c1 x13c1 x10c1)))
(assert (>= 2 (+ x16c1 x12c1 x8c1)))
(assert (>= 2 (+ x16c1 x11c1 x6c1)))
(assert (>= 2 (+ x16c1 x10c1 x4c1)))
(assert (>= 2 (+ x16c1 x9c1 x2c1)))
(assert (>= 2 (+ x16c1 x8c1 x0c1)))
(assert (>= 2 (+ x16c2 x15c2 x14c2)))
(assert (>= 2 (+ x16c2 x14c2 x12c2)))
(assert (>= 2 (+ x16c2 x13c2 x10c2)))
(assert (>= 2 (+ x16c2 x12c2 x8c2)))
(assert (>= 2 (+ x16c2 x11c2 x6c2)))
(assert (>= 2 (+ x16c2 x10c2 x4c2)))
(assert (>= 2 (+ x16c2 x9c2 x2c2)))
(assert (>= 2 (+ x16c2 x8c2 x0c2)))
(assert (>= 2 (+ x17c0 x16c0 x15c0)))
(assert (>= 2 (+ x17c0 x15c0 x13c0)))
(assert (>= 2 (+ x17c0 x14c0 x11c0)))
(assert (>= 2 (+ x17c0 x13c0 x9c0)))
(assert (>= 2 (+ x17c0 x12c0 x7c0)))
(assert (>= 2 (+ x17c0 x11c0 x5c0)))
(assert (>= 2 (+ x17c0 x10c0 x3c0)))
(assert (>= 2 (+ x17c0 x9c0 x1c0)))
(assert (>= 2 (+ x17c1 x16c1 x15c1)))
(assert (>= 2 (+ x17c1 x15c1 x13c1)))
(assert (>= 2 (+ x17c1 x14c1 x11c1)))
(assert (>= 2 (+ x17c1 x13c1 x9c1)))
(assert (>= 2 (+ x17c1 x12c1 x7c1)))
(assert (>= 2 (+ x17c1 x11c1 x5c1)))
(assert (>= 2 (+ x17c1 x10c1 x3c1)))
(assert (>= 2 (+ x17c1 x9c1 x1c1)))
(assert (>= 2 (+ x17c2 x16c2 x15c2)))
(assert (>= 2 (+ x17c2 x15c2 x13c2)))
(assert (>= 2 (+ x17c2 x14c2 x11c2)))
(assert (>= 2 (+ x17c2 x13c2 x9c2)))
(assert (>= 2 (+ x17c2 x12c2 x7c2)))
(assert (>= 2 (+ x17c2 x11c2 x5c2)))
(assert (>= 2 (+ x17c2 x10c2 x3c2)))
(assert (>= 2 (+ x17c2 x9c2 x1c2)))
(assert (>= 2 (+ x18c0 x17c0 x16c0)))
(assert (>= 2 (+ x18c0 x16c0 x14c0)))
(assert (>= 2 (+ x18c0 x15c0 x12c0)))
(assert (>= 2 (+ x18c0 x14c0 x10c0)))
(assert (>= 2 (+ x18c0 x13c0 x8c0)))
(assert (>= 2 (+ x18c0 x12c0 x6c0)))
(assert (>= 2 (+ x18c0 x11c0 x4c0)))
(assert (>= 2 (+ x18c0 x10c0 x2c0)))
(assert (>= 2 (+ x18c0 x9c0 x0c0)))
(assert (>= 2 (+ x18c1 x17c1 x16c1)))
(assert (>= 2 (+ x18c1 x16c1 x14c1)))
(assert (>= 2 (+ x18c1 x15c1 x12c1)))
(assert (>= 2 (+ x18c1 x14c1 x10c1)))
(assert (>= 2 (+ x18c1 x13c1 x8c1)))
(assert (>= 2 (+ x18c1 x12c1 x6c1)))
(assert (>= 2 (+ x18c1 x11c1 x4c1)))
(assert (>= 2 (+ x18c1 x10c1 x2c1)))
(assert (>= 2 (+ x18c1 x9c1 x0c1)))
(assert (>= 2 (+ x18c2 x17c2 x16c2)))
(assert (>= 2 (+ x18c2 x16c2 x14c2)))
(assert (>= 2 (+ x18c2 x15c2 x12c2)))
(assert (>= 2 (+ x18c2 x14c2 x10c2)))
(assert (>= 2 (+ x18c2 x13c2 x8c2)))
(assert (>= 2 (+ x18c2 x12c2 x6c2)))
(assert (>= 2 (+ x18c2 x11c2 x4c2)))
(assert (>= 2 (+ x18c2 x10c2 x2c2)))
(assert (>= 2 (+ x18c2 x9c2 x0c2)))
(assert (>= 2 (+ x19c0 x18c0 x17c0)))
(assert (>= 2 (+ x19c0 x17c0 x15c0)))
(assert (>= 2 (+ x19c0 x16c0 x13c0)))
(assert (>= 2 (+ x19c0 x15c0 x11c0)))
(assert (>= 2 (+ x19c0 x14c0 x9c0)))
(assert (>= 2 (+ x19c0 x13c0 x7c0)))
(assert (>= 2 (+ x19c0 x12c0 x5c0)))
(assert (>= 2 (+ x19c0 x11c0 x3c0)))
(assert (>= 2 (+ x19c0 x10c0 x1c0)))
(assert (>= 2 (+ x19c1 x18c1 x17c1)))
(assert (>= 2 (+ x19c1 x17c1 x15c1)))
(assert (>= 2 (+ x19c1 x16c1 x13c1)))
(assert (>= 2 (+ x19c1 x15c1 x11c1)))
(assert (>= 2 (+ x19c1 x14c1 x9c1)))
(assert (>= 2 (+ x19c1 x13c1 x7c1)))
(assert (>= 2 (+ x19c1 x12c1 x5c1)))
(assert (>= 2 (+ x19c1 x11c1 x3c1)))
(assert (>= 2 (+ x19c1 x10c1 x1c1)))
(assert (>= 2 (+ x19c2 x18c2 x17c2)))
(assert (>= 2 (+ x19c2 x17c2 x15c2)))
(assert (>= 2 (+ x19c2 x16c2 x13c2)))
(assert (>= 2 (+ x19c2 x15c2 x11c2)))
(assert (>= 2 (+ x19c2 x14c2 x9c2)))
(assert (>= 2 (+ x19c2 x13c2 x7c2)))
(assert (>= 2 (+ x19c2 x12c2 x5c2)))
(assert (>= 2 (+ x19c2 x11c2 x3c2)))
(assert (>= 2 (+ x19c2 x10c2 x1c2)))
(assert (>= 2 (+ x20c0 x19c0 x18c0)))
(assert (>= 2 (+ x20c0 x18c0 x16c0)))
(assert (>= 2 (+ x20c0 x17c0 x14c0)))
(assert (>= 2 (+ x20c0 x16c0 x12c0)))
(assert (>= 2 (+ x20c0 x15c0 x10c0)))
(assert (>= 2 (+ x20c0 x14c0 x8c0)))
(assert (>= 2 (+ x20c0 x13c0 x6c0)))
(assert (>= 2 (+ x20c0 x12c0 x4c0)))
(assert (>= 2 (+ x20c0 x11c0 x2c0)))
(assert (>= 2 (+ x20c0 x10c0 x0c0)))
(assert (>= 2 (+ x20c1 x19c1 x18c1)))
(assert (>= 2 (+ x20c1 x18c1 x16c1)))
(assert (>= 2 (+ x20c1 x17c1 x14c1)))
(assert (>= 2 (+ x20c1 x16c1 x12c1)))
(assert (>= 2 (+ x20c1 x15c1 x10c1)))
(assert (>= 2 (+ x20c1 x14c1 x8c1)))
(assert (>= 2 (+ x20c1 x13c1 x6c1)))
(assert (>= 2 (+ x20c1 x12c1 x4c1)))
(assert (>= 2 (+ x20c1 x11c1 x2c1)))
(assert (>= 2 (+ x20c1 x10c1 x0c1)))
(assert (>= 2 (+ x20c2 x19c2 x18c2)))
(assert (>= 2 (+ x20c2 x18c2 x16c2)))
(assert (>= 2 (+ x20c2 x17c2 x14c2)))
(assert (>= 2 (+ x20c2 x16c2 x12c2)))
(assert (>= 2 (+ x20c2 x15c2 x10c2)))
(assert (>= 2 (+ x20c2 x14c2 x8c2)))
(assert (>= 2 (+ x20c2 x13c2 x6c2)))
(assert (>= 2 (+ x20c2 x12c2 x4c2)))
(assert (>= 2 (+ x20c2 x11c2 x2c2)))
(assert (>= 2 (+ x20c2 x10c2 x0c2)))
(assert (>= 2 (+ x21c0 x20c0 x19c0)))
(assert (>= 2 (+ x21c0 x19c0 x17c0)))
(assert (>= 2 (+ x21c0 x18c0 x15c0)))
(assert (>= 2 (+ x21c0 x17c0 x13c0)))
(assert (>= 2 (+ x21c0 x16c0 x11c0)))
(assert (>= 2 (+ x21c0 x15c0 x9c0)))
(assert (>= 2 (+ x21c0 x14c0 x7c0)))
(assert (>= 2 (+ x21c0 x13c0 x5c0)))
(assert (>= 2 (+ x21c0 x12c0 x3c0)))
(assert (>= 2 (+ x21c0 x11c0 x1c0)))
(assert (>= 2 (+ x21c1 x20c1 x19c1)))
(assert (>= 2 (+ x21c1 x19c1 x17c1)))
(assert (>= 2 (+ x21c1 x18c1 x15c1)))
(assert (>= 2 (+ x21c1 x17c1 x13c1)))
(assert (>= 2 (+ x21c1 x16c1 x11c1)))
(assert (>= 2 (+ x21c1 x15c1 x9c1)))
(assert (>= 2 (+ x21c1 x14c1 x7c1)))
(assert (>= 2 (+ x21c1 x13c1 x5c1)))
(assert (>= 2 (+ x21c1 x12c1 x3c1)))
(assert (>= 2 (+ x21c1 x11c1 x1c1)))
(assert (>= 2 (+ x21c2 x20c2 x19c2)))
(assert (>= 2 (+ x21c2 x19c2 x17c2)))
(assert (>= 2 (+ x21c2 x18c2 x15c2)))
(assert (>= 2 (+ x21c2 x17c2 x13c2)))
(assert (>= 2 (+ x21c2 x16c2 x11c2)))
(assert (>= 2 (+ x21c2 x15c2 x9c2)))
(assert (>= 2 (+ x21c2 x14c2 x7c2)))
(assert (>= 2 (+ x21c2 x13c2 x5c2)))
(assert (>= 2 (+ x21c2 x12c2 x3c2)))
(assert (>= 2 (+ x21c2 x11c2 x1c2)))
(assert (>= 2 (+ x22c0 x21c0 x20c0)))
(assert (>= 2 (+ x22c0 x20c0 x18c0)))
(assert (>= 2 (+ x22c0 x19c0 x16c0)))
(assert (>= 2 (+ x22c0 x18c0 x14c0)))
(assert (>= 2 (+ x22c0 x17c0 x12c0)))
(assert (>= 2 (+ x22c0 x16c0 x10c0)))
(assert (>= 2 (+ x22c0 x15c0 x8c0)))
(assert (>= 2 (+ x22c0 x14c0 x6c0)))
(assert (>= 2 (+ x22c0 x13c0 x4c0)))
(assert (>= 2 (+ x22c0 x12c0 x2c0)))
(assert (>= 2 (+ x22c0 x11c0 x0c0)))
(assert (>= 2 (+ x22c1 x21c1 x20c1)))
(assert (>= 2 (+ x22c1 x20c1 x18c1)))
(assert (>= 2 (+ x22c1 x19c1 x16c1)))
(assert (>= 2 (+ x22c1 x18c1 x14c1)))
(assert (>= 2 (+ x22c1 x17c1 x12c1)))
(assert (>= 2 (+ x22c1 x16c1 x10c1)))
(assert (>= 2 (+ x22c1 x15c1 x8c1)))
(assert (>= 2 (+ x22c1 x14c1 x6c1)))
(assert (>= 2 (+ x22c1 x13c1 x4c1)))
(assert (>= 2 (+ x22c1 x12c1 x2c1)))
(assert (>= 2 (+ x22c1 x11c1 x0c1)))
(assert (>= 2 (+ x22c2 x21c2 x20c2)))
(assert (>= 2 (+ x22c2 x20c2 x18c2)))
(assert (>= 2 (+ x22c2 x19c2 x16c2)))
(assert (>= 2 (+ x22c2 x18c2 x14c2)))
(assert (>= 2 (+ x22c2 x17c2 x12c2)))
(assert (>= 2 (+ x22c2 x16c2 x10c2)))
(assert (>= 2 (+ x22c2 x15c2 x8c2)))
(assert (>= 2 (+ x22c2 x14c2 x6c2)))
(assert (>= 2 (+ x22c2 x13c2 x4c2)))
(assert (>= 2 (+ x22c2 x12c2 x2c2)))
(assert (>= 2 (+ x22c2 x11c2 x0c2)))
(assert (>= 2 (+ x23c0 x22c0 x21c0)))
(assert (>= 2 (+ x23c0 x21c0 x19c0)))
(assert (>= 2 (+ x23c0 x20c0 x17c0)))
(assert (>= 2 (+ x23c0 x19c0 x15c0)))
(assert (>= 2 (+ x23c0 x18c0 x13c0)))
(assert (>= 2 (+ x23c0 x17c0 x11c0)))
(assert (>= 2 (+ x23c0 x16c0 x9c0)))
(assert (>= 2 (+ x23c0 x15c0 x7c0)))
(assert (>= 2 (+ x23c0 x14c0 x5c0)))
(assert (>= 2 (+ x23c0 x13c0 x3c0)))
(assert (>= 2 (+ x23c0 x12c0 x1c0)))
(assert (>= 2 (+ x23c1 x22c1 x21c1)))
(assert (>= 2 (+ x23c1 x21c1 x19c1)))
(assert (>= 2 (+ x23c1 x20c1 x17c1)))
(assert (>= 2 (+ x23c1 x19c1 x15c1)))
(assert (>= 2 (+ x23c1 x18c1 x13c1)))
(assert (>= 2 (+ x23c1 x17c1 x11c1)))
(assert (>= 2 (+ x23c1 x16c1 x9c1)))
(assert (>= 2 (+ x23c1 x15c1 x7c1)))
(assert (>= 2 (+ x23c1 x14c1 x5c1)))
(assert (>= 2 (+ x23c1 x13c1 x3c1)))
(assert (>= 2 (+ x23c1 x12c1 x1c1)))
(assert (>= 2 (+ x23c2 x22c2 x21c2)))
(assert (>= 2 (+ x23c2 x21c2 x19c2)))
(assert (>= 2 (+ x23c2 x20c2 x17c2)))
(assert (>= 2 (+ x23c2 x19c2 x15c2)))
(assert (>= 2 (+ x23c2 x18c2 x13c2)))
(assert (>= 2 (+ x23c2 x17c2 x11c2)))
(assert (>= 2 (+ x23c2 x16c2 x9c2)))
(assert (>= 2 (+ x23c2 x15c2 x7c2)))
(assert (>= 2 (+ x23c2 x14c2 x5c2)))
(assert (>= 2 (+ x23c2 x13c2 x3c2)))
(assert (>= 2 (+ x23c2 x12c2 x1c2)))
(assert (>= 2 (+ x24c0 x23c0 x22c0)))
(assert (>= 2 (+ x24c0 x22c0 x20c0)))
(assert (>= 2 (+ x24c0 x21c0 x18c0)))
(assert (>= 2 (+ x24c0 x20c0 x16c0)))
(assert (>= 2 (+ x24c0 x19c0 x14c0)))
(assert (>= 2 (+ x24c0 x18c0 x12c0)))
(assert (>= 2 (+ x24c0 x17c0 x10c0)))
(assert (>= 2 (+ x24c0 x16c0 x8c0)))
(assert (>= 2 (+ x24c0 x15c0 x6c0)))
(assert (>= 2 (+ x24c0 x14c0 x4c0)))
(assert (>= 2 (+ x24c0 x13c0 x2c0)))
(assert (>= 2 (+ x24c0 x12c0 x0c0)))
(assert (>= 2 (+ x24c1 x23c1 x22c1)))
(assert (>= 2 (+ x24c1 x22c1 x20c1)))
(assert (>= 2 (+ x24c1 x21c1 x18c1)))
(assert (>= 2 (+ x24c1 x20c1 x16c1)))
(assert (>= 2 (+ x24c1 x19c1 x14c1)))
(assert (>= 2 (+ x24c1 x18c1 x12c1)))
(assert (>= 2 (+ x24c1 x17c1 x10c1)))
(assert (>= 2 (+ x24c1 x16c1 x8c1)))
(assert (>= 2 (+ x24c1 x15c1 x6c1)))
(assert (>= 2 (+ x24c1 x14c1 x4c1)))
(assert (>= 2 (+ x24c1 x13c1 x2c1)))
(assert (>= 2 (+ x24c1 x12c1 x0c1)))
(assert (>= 2 (+ x24c2 x23c2 x22c2)))
(assert (>= 2 (+ x24c2 x22c2 x20c2)))
(assert (>= 2 (+ x24c2 x21c2 x18c2)))
(assert (>= 2 (+ x24c2 x20c2 x16c2)))
(assert (>= 2 (+ x24c2 x19c2 x14c2)))
(assert (>= 2 (+ x24c2 x18c2 x12c2)))
(assert (>= 2 (+ x24c2 x17c2 x10c2)))
(assert (>= 2 (+ x24c2 x16c2 x8c2)))
(assert (>= 2 (+ x24c2 x15c2 x6c2)))
(assert (>= 2 (+ x24c2 x14c2 x4c2)))
(assert (>= 2 (+ x24c2 x13c2 x2c2)))
(assert (>= 2 (+ x24c2 x12c2 x0c2)))
(assert (>= 2 (+ x25c0 x24c0 x23c0)))
(assert (>= 2 (+ x25c0 x23c0 x21c0)))
(assert (>= 2 (+ x25c0 x22c0 x19c0)))
(assert (>= 2 (+ x25c0 x21c0 x17c0)))
(assert (>= 2 (+ x25c0 x20c0 x15c0)))
(assert (>= 2 (+ x25c0 x19c0 x13c0)))
(assert (>= 2 (+ x25c0 x18c0 x11c0)))
(assert (>= 2 (+ x25c0 x17c0 x9c0)))
(assert (>= 2 (+ x25c0 x16c0 x7c0)))
(assert (>= 2 (+ x25c0 x15c0 x5c0)))
(assert (>= 2 (+ x25c0 x14c0 x3c0)))
(assert (>= 2 (+ x25c0 x13c0 x1c0)))
(assert (>= 2 (+ x25c1 x24c1 x23c1)))
(assert (>= 2 (+ x25c1 x23c1 x21c1)))
(assert (>= 2 (+ x25c1 x22c1 x19c1)))
(assert (>= 2 (+ x25c1 x21c1 x17c1)))
(assert (>= 2 (+ x25c1 x20c1 x15c1)))
(assert (>= 2 (+ x25c1 x19c1 x13c1)))
(assert (>= 2 (+ x25c1 x18c1 x11c1)))
(assert (>= 2 (+ x25c1 x17c1 x9c1)))
(assert (>= 2 (+ x25c1 x16c1 x7c1)))
(assert (>= 2 (+ x25c1 x15c1 x5c1)))
(assert (>= 2 (+ x25c1 x14c1 x3c1)))
(assert (>= 2 (+ x25c1 x13c1 x1c1)))
(assert (>= 2 (+ x25c2 x24c2 x23c2)))
(assert (>= 2 (+ x25c2 x23c2 x21c2)))
(assert (>= 2 (+ x25c2 x22c2 x19c2)))
(assert (>= 2 (+ x25c2 x21c2 x17c2)))
(assert (>= 2 (+ x25c2 x20c2 x15c2)))
(assert (>= 2 (+ x25c2 x19c2 x13c2)))
(assert (>= 2 (+ x25c2 x18c2 x11c2)))
(assert (>= 2 (+ x25c2 x17c2 x9c2)))
(assert (>= 2 (+ x25c2 x16c2 x7c2)))
(assert (>= 2 (+ x25c2 x15c2 x5c2)))
(assert (>= 2 (+ x25c2 x14c2 x3c2)))
(assert (>= 2 (+ x25c2 x13c2 x1c2)))
(assert (>= 2 (+ x26c0 x25c0 x24c0)))
(assert (>= 2 (+ x26c0 x24c0 x22c0)))
(assert (>= 2 (+ x26c0 x23c0 x20c0)))
(assert (>= 2 (+ x26c0 x22c0 x18c0)))
(assert (>= 2 (+ x26c0 x21c0 x16c0)))
(assert (>= 2 (+ x26c0 x20c0 x14c0)))
(assert (>= 2 (+ x26c0 x19c0 x12c0)))
(assert (>= 2 (+ x26c0 x18c0 x10c0)))
(assert (>= 2 (+ x26c0 x17c0 x8c0)))
(assert (>= 2 (+ x26c0 x16c0 x6c0)))
(assert (>= 2 (+ x26c0 x15c0 x4c0)))
(assert (>= 2 (+ x26c0 x14c0 x2c0)))
(assert (>= 2 (+ x26c0 x13c0 x0c0)))
(assert (>= 2 (+ x26c1 x25c1 x24c1)))
(assert (>= 2 (+ x26c1 x24c1 x22c1)))
(assert (>= 2 (+ x26c1 x23c1 x20c1)))
(assert (>= 2 (+ x26c1 x22c1 x18c1)))
(assert (>= 2 (+ x26c1 x21c1 x16c1)))
(assert (>= 2 (+ x26c1 x20c1 x14c1)))
(assert (>= 2 (+ x26c1 x19c1 x12c1)))
(assert (>= 2 (+ x26c1 x18c1 x10c1)))
(assert (>= 2 (+ x26c1 x17c1 x8c1)))
(assert (>= 2 (+ x26c1 x16c1 x6c1)))
(assert (>= 2 (+ x26c1 x15c1 x4c1)))
(assert (>= 2 (+ x26c1 x14c1 x2c1)))
(assert (>= 2 (+ x26c1 x13c1 x0c1)))
(assert (>= 2 (+ x26c2 x25c2 x24c2)))
(assert (>= 2 (+ x26c2 x24c2 x22c2)))
(assert (>= 2 (+ x26c2 x23c2 x20c2)))
(assert (>= 2 (+ x26c2 x22c2 x18c2)))
(assert (>= 2 (+ x26c2 x21c2 x16c2)))
(assert (>= 2 (+ x26c2 x20c2 x14c2)))
(assert (>= 2 (+ x26c2 x19c2 x12c2)))
(assert (>= 2 (+ x26c2 x18c2 x10c2)))
(assert (>= 2 (+ x26c2 x17c2 x8c2)))
(assert (>= 2 (+ x26c2 x16c2 x6c2)))
(assert (>= 2 (+ x26c2 x15c2 x4c2)))
(assert (>= 2 (+ x26c2 x14c2 x2c2)))
(assert (>= 2 (+ x26c2 x13c2 x0c2)))
(assert (>= 2 (+ x27c0 x26c0 x25c0)))
(assert (>= 2 (+ x27c0 x25c0 x23c0)))
(assert (>= 2 (+ x27c0 x24c0 x21c0)))
(assert (>= 2 (+ x27c0 x23c0 x19c0)))
(assert (>= 2 (+ x27c0 x22c0 x17c0)))
(assert (>= 2 (+ x27c0 x21c0 x15c0)))
(assert (>= 2 (+ x27c0 x20c0 x13c0)))
(assert (>= 2 (+ x27c0 x19c0 x11c0)))
(assert (>= 2 (+ x27c0 x18c0 x9c0)))
(assert (>= 2 (+ x27c0 x17c0 x7c0)))
(assert (>= 2 (+ x27c0 x16c0 x5c0)))
(assert (>= 2 (+ x27c0 x15c0 x3c0)))
(assert (>= 2 (+ x27c0 x14c0 x1c0)))
(assert (>= 2 (+ x27c1 x26c1 x25c1)))
(assert (>= 2 (+ x27c1 x25c1 x23c1)))
(assert (>= 2 (+ x27c1 x24c1 x21c1)))
(assert (>= 2 (+ x27c1 x23c1 x19c1)))
(assert (>= 2 (+ x27c1 x22c1 x17c1)))
(assert (>= 2 (+ x27c1 x21c1 x15c1)))
(assert (>= 2 (+ x27c1 x20c1 x13c1)))
(assert (>= 2 (+ x27c1 x19c1 x11c1)))
(assert (>= 2 (+ x27c1 x18c1 x9c1)))
(assert (>= 2 (+ x27c1 x17c1 x7c1)))
(assert (>= 2 (+ x27c1 x16c1 x5c1)))
(assert (>= 2 (+ x27c1 x15c1 x3c1)))
(assert (>= 2 (+ x27c1 x14c1 x1c1)))
(assert (>= 2 (+ x27c2 x26c2 x25c2)))
(assert (>= 2 (+ x27c2 x25c2 x23c2)))
(assert (>= 2 (+ x27c2 x24c2 x21c2)))
(assert (>= 2 (+ x27c2 x23c2 x19c2)))
(assert (>= 2 (+ x27c2 x22c2 x17c2)))
(assert (>= 2 (+ x27c2 x21c2 x15c2)))
(assert (>= 2 (+ x27c2 x20c2 x13c2)))
(assert (>= 2 (+ x27c2 x19c2 x11c2)))
(assert (>= 2 (+ x27c2 x18c2 x9c2)))
(assert (>= 2 (+ x27c2 x17c2 x7c2)))
(assert (>= 2 (+ x27c2 x16c2 x5c2)))
(assert (>= 2 (+ x27c2 x15c2 x3c2)))
(assert (>= 2 (+ x27c2 x14c2 x1c2)))
(check-sat)
(get-proof)
